NAME : prob30a
TYPE : PDTSP
DIMENSION : 61
EDGE_WEIGHT_TYPE : EUC_2D
NODE_COORD_SECTION
1 69 812
2 974 296
3 401 270
4 532 572
5 896 665
6 64 980
7 163 133
8 573 865
9 237 75
10 577 81
11 735 778
12 139 540
13 872 35
14 361 475
15 873 328
16 46 967
17 123 287
18 470 830
19 669 396
20 946 166
21 103 858
22 759 414
23 14 321
24 869 460
25 75 685
26 633 626
27 867 556
28 500 251
29 877 448
30 920 9
31 36 459
32 230 357
33 136 676
34 507 188
35 481 804
36 889 253
37 958 703
38 638 473
39 143 350
40 938 531
41 142 796
42 564 834
43 145 727
44 816 90
45 494 98
46 505 575
47 785 685
48 93 861
49 701 616
50 752 328
51 126 512
52 47 405
53 369 556
54 93 896
55 148 28
56 288 296
57 234 784
58 639 83
59 359 117
60 118 46
61 280 10
PICKUP_AND_DELIVERY_SECTION
1 0 0 0 0 0 0
2 0 0 0 0 32 0
3 0 0 0 0 33 0
4 0 0 0 0 34 0
5 0 0 0 0 35 0
6 0 0 0 0 36 0
7 0 0 0 0 37 0
8 0 0 0 0 38 0
9 0 0 0 0 39 0
10 0 0 0 0 40 0
11 0 0 0 0 41 0
12 0 0 0 0 42 0
13 0 0 0 0 43 0
14 0 0 0 0 44 0
15 0 0 0 0 45 0
16 0 0 0 0 46 0
17 0 0 0 0 47 0
18 0 0 0 0 48 0
19 0 0 0 0 49 0
20 0 0 0 0 50 0
21 0 0 0 0 51 0
22 0 0 0 0 52 0
23 0 0 0 0 53 0
24 0 0 0 0 54 0
25 0 0 0 0 55 0
26 0 0 0 0 56 0
27 0 0 0 0 57 0
28 0 0 0 0 58 0
29 0 0 0 0 59 0
30 0 0 0 0 60 0
31 0 0 0 0 61 0
32 0 0 0 0 0 2
33 0 0 0 0 0 3
34 0 0 0 0 0 4
35 0 0 0 0 0 5
36 0 0 0 0 0 6
37 0 0 0 0 0 7
38 0 0 0 0 0 8
39 0 0 0 0 0 9
40 0 0 0 0 0 10
41 0 0 0 0 0 11
42 0 0 0 0 0 12
43 0 0 0 0 0 13
44 0 0 0 0 0 14
45 0 0 0 0 0 15
46 0 0 0 0 0 16
47 0 0 0 0 0 17
48 0 0 0 0 0 18
49 0 0 0 0 0 19
50 0 0 0 0 0 20
51 0 0 0 0 0 21
52 0 0 0 0 0 22
53 0 0 0 0 0 23
54 0 0 0 0 0 24
55 0 0 0 0 0 25
56 0 0 0 0 0 26
57 0 0 0 0 0 27
58 0 0 0 0 0 28
59 0 0 0 0 0 29
60 0 0 0 0 0 30
61 0 0 0 0 0 31
DEPOT_SECTION
1 
-1
EOF
